sing20220430.12
TTAA  80111 48698
99004 26018 33504 00069 26627 31004 92758 23631 00506
85494 19626 22008 70140 10224 27514 50587 04360 23014
40760 12759 25023 30973 28958 23016 25100 39158 15018
20249 51956 08514 15429 67361 07037 10664 81550 25510
88999
77999=
TTCC  80117 48698
70864 78558 00516
88916 84534 20010
77999=
TTDD  8011/ 48698
11916 84534 22899 83149 33796 83548 44742 77759 55681 77759
21212 11958 26010 22937 24510 33904 18512 44764 09514 55758
07510 66747 01510 77738 36014 88681 01512=
